= Tutorials =

Here you can find short tutorials on how to calculate the NMR chemical shift of 29 Si and 17 O atoms in alpha-quartz crystal with QE-CONVERSE code.
To obtain the NMR chemical shift you have to execute three step:

1) SCF calculation
2) the NMR shielding tensor calculation
3) the NMR chemical shift extrapolation

You can find all the calculations done in the directory /reference/

%%%%%%%%%%%%%%%%%%%%%%%%%%%%%%%%%%%%%%%%%%%%%%%%%%%%%%%%%%%%%%%%%

1) SCF calculation

You have to perform a SCF calculation using the PW code of Quantum-ESPRESSO on a geometrically optimized structure. 
In this directory you can find the PW input of alpha-quartz:

$ pw.x < quartz_scf.in > quartz_scf.out 

The symmetry must be switched off using `nosym=.true.` and `noinv=.true.`
It's important to include at least one empty band.
{{{
&control
    calculation = 'scf'
    prefix = 'quartz'
    restart_mode = 'from_scratch'
    pseudo_dir = './pseudo/'
    outdir = './scratch/'
    verbosity = 'high'
/
&system
    ibrav = 0
    celldm(1) = 4.6415377
    nat = 9
    ntyp = 2
    ecutwfc = 70
    nosym = .true.
    noinv = .true.
    nbnd = 25
/
&electrons
    diagonalization = 'david'
    diago_thr_init = 1e-4
    mixing_beta = 0.5
    conv_thr =  1e-10
/

ATOMIC_SPECIES
Si 28.086  Si.pbe-tm-gipaw.UPF
O  15.999  O.pbe-tm-new-gipaw.UPF

ATOMIC_POSITIONS crystal
Si    0.4701     0.0000      0.3333333333
Si    0.0000     0.4701      0.6666666667
Si   -0.4701    -0.4701      0.0000000000
O     0.4139     0.2674      0.2144
O     -0.2674    0.1465      0.5477333333
O     -0.1465   -0.4139      0.8810666667
O      0.2674    0.4139     -0.2144
O      0.1465   -0.2674      0.4522666667
O     -0.4139   -0.1465      0.1189333333

CELL_PARAMETERS hexagonal
1.0000000      -1.7320581       0.0000000
1.0000000       1.7320581       0.0000000
0.0000000       0.0000000       2.2000000

K_POINTS automatic
2 2 2   0 0 0
}}}
%%%%%%%%%%%%%%%%%%%%%%%%%%%%%%%%%%%%%%%%%%%%%%%%%%%%%%%%%%%%%%%%%

2) NMR shielding tensor calculation

Replace "your_path" in `nmr_shift.sh` script with the folder containing your Quantum-ESPRESSO installation.
Executing the bash script `nmr_shift.sh` you compute the NMR shielding tensor for the first three equivalent Si atoms and the O atom:

./nmr_shift.sh
{{{
#!/bin/bash
NAME="nmr"
molecule=quartz
natoms=4
atoms=("null" "Si" "Si" "Si" "O")
cart=("null" "x" "y" "z")


for i in `seq 1 $natoms`
do
for DIR in 1 2 3
do
        base=${molecule}_${atoms[$i]}$i${cart[$DIR]}
        cat > ${base}.in << EOF



&input_qeconverse
        prefix = 'quartz'
        outdir = './scratch/'
        diagonalization = 'david'
        verbosity = 'high'
        q_gipaw = 0.01
        dudk_method = 'covariant'
        diago_thr_init = 1d-4
        conv_threshold = 1e-8
        mixing_beta = 0.5
        lambda_so(1) = 0.0
        m_0(${DIR}) = 1.0
        m_0_atom = ${i}
/
EOF

mpirun -np 6 "your_path"/bin/qe-converse.x < ${base}.in > ${base}.out

done
done
}}}
By inspecting the output files, the contribution of the core to the NMR shielding
is 837.9127 ppm for Si and 271.0758 ppm for O. 
Now executing the `getshifts.sh` script you grep the shielding tensors and compute the isotropic shielding:

./getshifts.sh
{{{
#!/bin/sh

echo "Si shielding:"
grep Chemical *_Si*out | awk ' { tr=$5; getline; tr+=$6; getline; tr+=$7; print 837.9127 + tr/3.0}'

echo

echo "O shielding:"
grep Chemical *_O*out | awk ' { tr=$5; getline; tr+=$6; getline; tr+=$7; print 271.0758 +tr/3.0}'

echo

}}}
You obtain the following the isotropic shielding, sigma(iso):

Si shielding:
432.038
432.025
432.067

O shielding:
210.251

You can avarage the NMR isotropic shielding tensors for the equivalent Si atoms obtaining:

Si shielding:
432.043

O shielding:
210.251

%%%%%%%%%%%%%%%%%%%%%%%%%%%%%%%%%%%%%%%%%%%%%%%%%%%%%%%%%%%%%%%%%

3) NMR chemical shift extrapolation

Now you can extrapolate the NMR chemical shift for the Si and O atom using the relationship:

delta(ppm) = sigma(ref) - sigma(iso)

where 
sigma(ref) for 29 Si = 324.511 ppm
sigma(ref) for 17 O  = 253.343 ppm 

delta(ppm) 29 Si = 324.511 - 432.043 = -107.53
delta(ppm) 17 O  = 253.343 - 210.251 =  43.09

Comparing with experimental values (Ref.1) there's a very close agreement:
                   
                 Calc.(ppm)  Exp.(ppm)
        29 Si     -107.53     -107.73
        17 O        43.09       40.08
                    

(Ref.1) M. B. Boslough, R. T. Cygan, and J. R. Kirkpatrick, Abstracts of
the 24th Lunar and Planetary Science Conference, Houston, TX,
15–19 March 1993 Lunar and Planetary Institute, Houston,
Texas, 1993, p. 149.

 

