&control
    prefix = 'so'
    calculation = 'scf'
    pseudo_dir = '../pseudo/'
    outdir = './scratch/'
    tstress = .false.
    tprnfor = .false.
    verbosity = 'high'
/
&system
    ibrav = 1
    celldm(1) = 20
    nat = 2
    ntyp = 2
    ecutwfc = 100
    occupations = 'fixed'
    nspin = 2
    tot_magnetization = 2
/
&electrons
    diagonalization = 'david'
    diago_thr_init = 1e-4
    conv_thr = 1e-8
/
ATOMIC_SPECIES
O    16.0000   O.pbe-tm-new-gipaw-dc.UPF 
S    32.0000   S.pbe-tm-gipaw-new-dc.UPF 

ATOMIC_POSITIONS angstrom
S             0.0000000000        0.0000000000       -0.1478240399
O             0.0000000000        0.0000000000        1.3558240399
K_POINTS automatic
1 1 1 0 0 0

