&CONTROL
prefix="Al2O3-Theta-relax",
calculation="scf",
restart_mode = 'from_scratch',
tprnfor=.t.,
nstep=500
PSEUDO_DIR='./pseudo/',
prefix='theta-al2o3',
outdir='./scratch/'
/
&SYSTEM
                      ibrav = 0,
                  celldm(1) = 22.3965224,
                        nat = 200,
                       ntyp = 2,
                    ecutwfc = 70.0 ,
                     nbnd = 481
                     nosym = .true.
/
&ELECTRONS
conv_thr=1.0D-9,
mixing_beta=0.5D0,
electron_maxstep=300, 
/
&CELL
/
CELL_PARAMETERS alat
    1.005458991  -0.000000063  -0.002308582
  -0.000000078   1.240128092   0.000000027
  -0.229673214   0.000000035   0.928528495

ATOMIC_SPECIES
   Al    26.9800  Al.pbe-tm-gipaw-dc.UPF 
    O    16.0000  O.pbe-tm-new-gipaw-dc.UPF 
    
ATOMIC_POSITIONS angstrom
Al            7.4080910917        0.0007218380        1.7216649076
Al            3.1459293787        0.0007237376        3.7523628894
Al            1.4498779860        1.4704878985        1.7353417968
Al            9.1041423156        1.4704893593        3.7386860203
Al           10.5630729479        0.0007345549        1.0997821064
Al           -0.0090475916        0.0007372046        4.3742818021
Al            4.6048594014        1.4705019458        1.1134591653
Al            5.9491658017        1.4705035126        4.3606048104
O             1.7657923745        0.0007515522        0.5910641637
O             8.7882386667        0.0007537181        4.8829774502
O             7.7240055613        1.4705181355        0.5773871611
O             2.8300252747        1.4705207111        4.8966545073
O             5.5474835595        0.0007486099        1.4013221830
O             5.0065548322        0.0007497669        4.0727971255
O            11.5056977965        1.4705137205        1.3876425170
O            -0.9516595787        1.4705159661        4.0864768421
O             9.2600299588        0.0007535689        2.3572678221
O             1.2938875327        0.0007623691        3.1167547698
O             3.3018166050        1.4705201627        2.3709449352
O             7.2521007404        1.4705283357        3.1030777358
Al            7.4080909226        2.9402543000        1.7216650971
Al            3.1459292107        2.9402562002        3.7523627599
Al            1.4498777784        4.4100203247        1.7353418294
Al            9.1041421902        4.4100217938        3.7386860546
Al           10.5630727661        2.9402670207        1.0997821637
Al           -0.0090477283        2.9402696673        4.3742818389
Al            4.6048592433        4.4100343718        1.1134591991
Al            5.9491656333        4.4100359406        4.3606048485
O             1.7657922278        2.9402840551        0.5910641692
O             8.7882384459        2.9402862280        4.8829775025
O             7.7240053888        4.4100505401        0.5773871955
O             2.8300250626        4.4100531136        4.8966545415
O             5.5474834435        2.9402810811        1.4013221966
O             5.0065546222        2.9402822359        4.0727971871
O            11.5056976006        4.4100461931        1.3876425922
O            -0.9516596993        4.4100484371        4.0864768278
O             9.2600298455        2.9402859563        2.3572679225
O             1.2938872961        2.9402947469        3.1167547314
O             3.3018164072        4.4100524816        2.3709449458
O             7.2521006033        4.4100606739        3.1030777952
Al            7.4080908175        5.8797867594        1.7216650010
Al            3.1459289633        5.8797886635        3.7523629499
Al            1.4498776659        7.3495528732        1.7353418898
Al            9.1041419427        7.3495543342        3.7386861092
Al           10.5630726038        5.8797994879        1.0997821695
Al           -0.0090478888        5.8798021413        4.3742819097
Al            4.6048590488        7.3495668485        1.1134593009
Al            5.9491654612        7.3495684163        4.3606048530
O             1.7657920702        5.8798165388        0.5910642607
O             8.7882382482        5.8798186968        4.8829775082
O             7.7240051913        7.3495830614        0.5773872106
O             2.8300248777        7.3495856181        4.8966546548
O             5.5474832605        5.8798135353        1.4013222706
O             5.0065544533        5.8798146832        4.0727971877
O            11.5056974297        7.3495786686        1.3876426594
O            -0.9516598890        7.3495809029        4.0864768746
O             9.2600296019        5.8798183944        2.3572678781
O             1.2938872083        5.8798271969        3.1167548552
O             3.3018162005        7.3495851184        2.3709450511
O             7.2521004421        7.3495933142        3.1030778036
Al            7.4080905508        8.8193193017        1.7216650783
Al            3.1459288315        8.8193212065        3.7523630275
Al            1.4498773876       10.2890853342        1.7353421179
Al            9.1041418032       10.2890867992        3.7386860640
Al           10.5630723989        8.8193319620        1.0997822004
Al           -0.0090480943        8.8193346243        4.3742820435
Al            4.6048588458       10.2890993161        1.1134594277
Al            5.9491652372       10.2891008914        4.3606049134
O             1.7657919000        8.8193490664        0.5910643794
O             8.7882380486        8.8193511982        4.8829775360
O             7.7240049836       10.2891155377        0.5773872579
O             2.8300247363       10.2891180927        4.8966547772
O             5.5474830547        8.8193460014        1.4013223346
O             5.0065542652        8.8193471412        4.0727972815
O            11.5056972254       10.2891111147        1.3876427137
O            -0.9516601055       10.2891133537        4.0864770109
O             9.2600294236        8.8193510245        2.3572679190
O             1.2938869847        8.8193598498        3.1167549787
O             3.3018160685       10.2891175564        2.3709452188
O             7.2521001570       10.2891257601        3.1030778202
Al            7.4080903921       11.7588517284        1.7216651764
Al            3.1459285976       11.7588536440        3.7523631137
Al            1.4498771924       13.2286177946        1.7353420485
Al            9.1041416050       13.2286192660        3.7386863186
Al           10.5630721826       11.7588643879        1.0997822970
Al           -0.0090483007       11.7588670518        4.3742821343
Al            4.6048586854       13.2286317795        1.1134595012
Al            5.9491650150       13.2286333574        4.3606049996
O             1.7657916878       11.7588814650        0.5910644687
O             8.7882378710       11.7588836092        4.8829776344
O             7.7240047505       13.2286480402        0.5773873797
O             2.8300245990       13.2286506065        4.8966548412
O             5.5474828906       11.7588784662        1.4013224039
O             5.0065540274       11.7588796213        4.0727974058
O            11.5056969719       13.2286435858        1.3876428191
O            -0.9516602634       13.2286458259        4.0864770794
O             9.2600292475       11.7588833485        2.3572680383
O             1.2938867498       11.7588921877        3.1167550533
O             3.3018158215       13.2286499433        2.3709452336
O             7.2521000348       13.2286581514        3.1030779835
Al            6.0469485298        0.0007225078        7.2240172911
Al            1.7847882076        0.0007214327        9.2547154798
Al            0.0887354034        1.4704888707        7.2376941671
Al            7.7430011584        1.4704867504        9.2410386439
Al            9.2019362881        0.0007359478        6.6021335491
Al           -1.3701821459        0.0007339684        9.8766338852
Al            3.2437227313        1.4705030042        6.6158106111
Al            4.5880312172        1.4705006098        9.8629568774
O             0.4047252989        0.0007531892        6.0934234978
O             7.4271740700        0.0007509816       10.3853374139
O             6.3629384980        1.4705194412        6.0797465206
O             1.4689606950        1.4705183091       10.3990144604
O             4.1863478976        0.0007497053        6.9036848662
O             3.6454212426        0.0007467920        9.5751603854
O            10.1445621246        1.4705151545        6.8900051521
O            -2.3127931599        1.4705126474        9.5888400993
O             7.8988771612        0.0007514659        7.8596186824
O            -0.0672642863        0.0007616638        8.6191051645
O             1.9406637991        1.4705181771        7.8732957902
O             5.8909489471        1.4705275174        8.6054281668
Al            6.0469483434        2.9402549720        7.2240175025
Al            1.7847880324        2.9402538872        9.2547153631
Al            0.0887351852        4.4100213079        7.2376942072
Al            7.7430010386        4.4100191777        9.2410386725
Al            9.2019360852        2.9402684146        6.6021335829
Al           -1.3701823046        2.9402664283        9.8766339062
Al            3.2437225521        4.4100354354        6.6158106447
Al            4.5880310170        4.4100330386        9.8629569112
O             0.4047251621        2.9402856956        6.0934235231
O             7.4271739204        2.9402834992       10.3853374800
O             6.3629383420        4.4100518404        6.0797465644
O             1.4689605377        4.4100507102       10.3990144913
O             4.1863477514        2.9402821741        6.9036848817
O             3.6454210079        2.9402792563        9.5751604547
O            10.1445619051        4.4100476289        6.8900052389
O            -2.3127932858        4.4100451256        9.5888400978
O             7.8988770582        2.9402838554        7.8596187873
O            -0.0672645143        2.9402940486        8.6191051393
O             1.9406635885        4.4100505193        7.8732957987
O             5.8909487931        4.4100598292        8.6054282299
Al            6.0469482414        5.8797874276        7.2240174058
Al            1.7847877807        5.8797863547        9.2547155443
Al            0.0887350692        7.3495538490        7.2376942652
Al            7.7430007873        7.3495517254        9.2410387360
Al            9.2019358937        5.8798008857        6.6021336021
Al           -1.3701824799        5.8797989053        9.8766339892
Al            3.2437223617        7.3495679079        6.6158107638
Al            4.5880308395        7.3495655199        9.8629569201
O             0.4047250051        5.8798181786        6.0934236084
O             7.4271737443        5.8798159659       10.3853374785
O             6.3629381868        7.3495843531        6.0797465696
O             1.4689603360        7.3495832276       10.3990145931
O             4.1863475723        5.8798146229        6.9036849700
O             3.6454208304        5.8798117184        9.5751604591
O            10.1445617284        7.3495800926        6.8900053180
O            -2.3127934760        7.3495776028        9.5888401461
O             7.8988767937        5.8798162969        7.8596187525
O            -0.0672646170        5.8798264820        8.6191052688
O             1.9406633788        7.3495831659        7.8732959049
O             5.8909486359        7.3495924532        8.6054282465
Al            6.0469479984        8.8193199635        7.2240174751
Al            1.7847876608        8.8193189089        9.2547156189
Al            0.0887348025       10.2890863081        7.2376944947
Al            7.7430006625       10.2890841859        9.2410386906
Al            9.2019357093        8.8193333577        6.6021336205
Al           -1.3701826630        8.8193313882        9.8766341145
Al            3.2437221958       10.2891003754        6.6158108789
Al            4.5880306564       10.2890979861        9.8629569734
O             0.4047248340        8.8193506980        6.0934237283
O             7.4271735262        8.8193484726       10.3853375150
O             6.3629379425       10.2891168397        6.0797466207
O             1.4689601724       10.2891157028       10.3990147203
O             4.1863473863        8.8193470756        6.9036850367
O             3.6454206508        8.8193441869        9.5751605468
O            10.1445615375       10.2891125367        6.8900053506
O            -2.3127936791       10.2891100500        9.5888402713
O             7.8988766337        8.8193489439        7.8596187858
O            -0.0672648268        8.8193591242        8.6191053793
O             1.9406632769       10.2891156183        7.8732960661
O             5.8909483797       10.2891248845        8.6054282535
Al            6.0469478369       11.7588524056        7.2240175734
Al            1.7847874309       11.7588513331        9.2547157034
Al            0.0887346163       13.2286187739        7.2376944067
Al            7.7430004572       13.2286166451        9.2410389334
Al            9.2019355177       11.7588657896        6.6021337152
Al           -1.3701828511       11.7588638125        9.8766342033
Al            3.2437220327       13.2286328447        6.6158109635
Al            4.5880304379       13.2286304470        9.8629570782
O             0.4047245987       11.7588830972        6.0934238163
O             7.4271733275       11.7588808745       10.3853376099
O             6.3629376839       13.2286493475        6.0797467276
O             1.4689600086       13.2286482087       10.3990147765
O             4.1863472302       11.7588795528        6.9036850841
O             3.6454204302       11.7588766531        9.5751606663
O            10.1445613119       13.2286450123        6.8900054516
O            -2.3127938265       13.2286425198        9.5888403322
O             7.8988764724       11.7588812892        7.8596189019
O            -0.0672650515       11.7588914361        8.6191054484
O             1.9406630115       13.2286479998        7.8732960804
O             5.8909482340       13.2286572697        8.6054284066
K_POINTS automatic
2 2 2 0 0 0 
