&CONTROL
title="Al2O3_Rc100.0",
calculation="scf",
restart_mode = 'from_scratch',
tprnfor=.t.,
PSEUDO_DIR='./pseudo/',
prefix='alpha-al2o3',
outdir='./scratch/'
/
&SYSTEM
                      ibrav = 0,
                  celldm(1) = 9.042291,
                        nat = 120,
                       ntyp = 2,
                    ecutwfc = 70.0 ,
                    nosym = .true.
                    nbnd  = 289
/
&ELECTRONS
conv_thr=1.0D-9,
mixing_beta=0.5D0,
electron_maxstep=300,
/
&CELL
/
CELL_PARAMETERS alat
   1.004977040  -1.740662735   0.000001684
   1.004972659   1.740660207   0.000000354
   0.000002492  -0.000000849   2.740619203
ATOMIC_SPECIES
   Al    26.9800   Al.pbe-tm-gipaw-dc.UPF 
    O    16.0000 O.pbe-tm-new-gipaw-dc.UPF 
ATOMIC_POSITIONS angstrom
Al            2.3939939567        1.3701393691       12.8041098662
Al           -0.0104057325       -0.0182049472       11.1219186160
Al           -0.0105010114        2.7581264299       10.6186871018
Al            2.3938242581        1.3700041895        8.9362066056
Al           -0.0105960726       -0.0180810816        8.4330308258
Al           -0.0104055784        2.7583090647        6.7509091652
Al            2.3939855943        1.3701257457        6.2472105267
Al           -0.0104320690       -0.0182043217        4.5650406215
Al           -0.0104028124        2.7580613916        4.0619179727
Al            2.3938068406        1.3700103941        2.3793543236
Al           -0.0105093276       -0.0181495696        1.8761656117
Al           -0.0103998770        2.7582911911        0.1939411557
O             1.6572673937       -0.1302570411       11.9634351381
O            -0.7465212005        1.4819161961       11.9637084131
O             1.4624090071        2.7585833852       11.9636343942
O             3.3247815579       -0.0185271712        9.7768158376
O            -1.6782304182        2.8702568314        9.7773268155
O             0.7260232450        1.2580357079        9.7768733064
O             1.6575721587        2.6456701751        7.5921751140
O            -0.9415280203        1.3703952914        7.5923596040
O             1.6568979064        0.0942566741        7.5920952900
O             3.1305952236       -0.1305294117        5.4060937661
O             0.7262450181        1.4821967912        5.4057550149
O            -1.4835077587        2.7583402542        5.4057795493
O            -0.7477366556        1.2577411935        3.2212662006
O             1.6574801804        2.8704995311        3.2210704033
O             1.4631819580       -0.0183765758        3.2208279219
O             3.1309794530        0.0946246310        1.0342963919
O             0.9205422670        1.3697753585        1.0346970143
O            -1.6785174883        2.6460487138        1.0343516663
Al            7.2027307988        1.3701724010       12.8041659895
Al            4.7983250420       -0.0181517225       11.1218982323
Al            4.7982507364        2.7582166871       10.6187218668
Al            7.2025530342        1.3699976736        8.9361915652
Al            4.7981354050       -0.0180834934        8.4330299557
Al            4.7983423241        2.7583957652        6.7509266827
Al            7.2027160908        1.3701815742        6.2471760651
Al            4.7983056451       -0.0181642467        4.5650957722
Al            4.7983027433        2.7581167959        4.0619538025
Al            7.2025848249        1.3700315469        2.3794071191
Al            4.7982647695       -0.0181303662        1.8762219616
Al            4.7983088056        2.7583426047        0.1939906616
O             6.4659580910       -0.1301867500       11.9634797487
O             4.0622347487        1.4819834201       11.9636720787
O             6.2711437105        2.7586355813       11.9637043005
O             8.1335448685       -0.0185082194        9.7768234722
O             3.1305419934        2.8703175957        9.7773169182
O             5.5347399085        1.2581282849        9.7768586566
O             6.4663471193        2.6457339826        7.5921473894
O             3.8672403552        1.3704232098        7.5923771429
O             6.4656058772        0.0943441177        7.5920711144
O             7.9393418370       -0.1304660790        5.4060486046
O             5.5349420030        1.4822733092        5.4057868576
O             3.3252176314        2.7583799092        5.4058333983
O             4.0609590549        1.2577544463        3.2213422341
O             6.4662152318        2.8704947731        3.2210877925
O             6.2719180981       -0.0182995598        3.2208995129
O             7.9396791011        0.0946301905        1.0343701457
O             5.7292845860        1.3698426654        1.0347679742
O             3.1302115159        2.6460461090        1.0343654698
Al           -0.0102993297        5.5346798217       12.8040936088
Al           -2.4147731154        4.1462643631       11.1219456665
Al           -2.4148668489        6.9226013349       10.6187034376
Al           -0.0104691960        5.5345388491        8.9361895272
Al           -2.4149103831        4.1464206009        8.4330778521
Al           -2.4147497876        6.9228002744        6.7508535840
Al           -0.0103295117        5.5346051328        6.2471757319
Al           -2.4148078184        4.1463226833        4.5649850325
Al           -2.4147626007        6.9225888895        4.0618629824
Al           -0.0104876162        5.5344834886        2.3793150721
Al           -2.4148342336        4.1463527185        1.8761080186
Al           -2.4147136242        6.9227954051        0.1939748267
O            -0.7470946120        4.0342614771       11.9634365595
O            -3.1507915794        5.6464187697       11.9637463317
O            -0.9419149171        6.9231373989       11.9636615559
O             0.9204487669        4.1460124390        9.7768393786
O            -4.0825833167        7.0347778147        9.7773044860
O            -1.6782458382        5.4225368631        9.7769145060
O            -0.7467571783        6.8101644187        7.5921143239
O            -3.3458064163        5.5348685126        7.5923309825
O            -0.7474175016        4.2587805347        7.5921523720
O             0.7262185698        4.0339494889        5.4060799630
O            -1.6780675783        5.6467109913        5.4056901470
O            -3.8878467531        6.9227843565        5.4057052420
O            -3.1520244694        5.4222653919        3.2211856007
O            -0.7468796372        7.0349668521        3.2210544731
O            -0.9411562424        4.1460730293        3.2207523777
O             0.7266587735        4.2591125775        1.0342425497
O            -1.4837270079        5.5342633791        1.0346655886
O            -4.0828313284        6.8105766992        1.0343942763
Al            4.7984389693        5.5347132500       12.8041487373
Al            2.3939561258        4.1463120693       11.1219173687
Al            2.3938814158        6.9226864044       10.6187321681
Al            4.7982610073        5.5345310622        8.9361728602
Al            2.3938203772        4.1464167507        8.4330693620
Al            2.3939958800        6.9228904087        6.7508698207
Al            4.7983989443        5.5346592586        6.2471386360
Al            2.3939274402        4.1463581216        4.5650391653
Al            2.3939389688        6.9226413261        4.0618973298
Al            4.7982921179        5.5345028144        2.3793689943
Al            2.3939366415        4.1463716495        1.8761626538
Al            2.3939954164        6.9228429169        0.1940187002
O             4.0615951758        4.0343332004       11.9634803441
O             1.6579600432        5.6464818040       11.9637029468
O             3.8668186331        6.9231819950       11.9637213161
O             5.7292135390        4.1460370542        9.7768549296
O             0.7261843076        7.0348391501        9.7772976352
O             3.1304676985        5.4226274320        9.7768909438
O             4.0620182068        6.8102261203        7.5920814965
O             1.4629600906        5.5348988619        7.5923462633
O             4.0612920343        4.2588661997        7.5921250044
O             5.5349674421        4.0340133666        5.4060338805
O             3.1306264544        5.6467854003        5.4057191202
O             0.9208769134        6.9228264903        5.4057598715
O             1.6566674963        5.4222762694        3.2212610388
O             4.0618532766        7.0349601991        3.2210716136
O             3.8675799774        4.1461479143        3.2208218455
O             5.5353606551        4.2591205736        1.0343189704
O             3.3250147776        5.5343284784        1.0347336545
O             0.7259000980        6.8105730221        1.0344090619
K_POINTS automatic 
2 2 2  0 0 0 
