&control
    prefix = 'SiF'
    calculation = 'scf'
    restart_mode = 'from_scratch'
    pseudo_dir = '../pseudo/'
    outdir = './scratch/'
    tstress = .false.
    tprnfor = .false.
    verbosity = 'high'
/
&system
    ibrav = 1
    celldm(1) = 20
    nat = 2
    ntyp = 2
    nbnd = 7
    ecutwfc = 100
    occupations = 'fixed'
    nspin = 2
    tot_magnetization = 1
/
&electrons
    diagonalization = 'david'
    diago_thr_init = 1e-4
    conv_thr = 1e-8
/
ATOMIC_SPECIES
F    9.0000      F.pbe-tm-new-gipaw.UPF
Si   28.0000     Si_pbe-20080909.UPF

ATOMIC_POSITIONS angstrom
Si  0.00000  0.00000  0.00000
F   0.00000  0.00000  1.63220
K_POINTS automatic
1 1 1 0 0 0

