&control
    prefix = '512off'
    calculation = 'scf'
    restart_mode = 'from_scratch'
    pseudo_dir = './pseudo/'
    outdir = './scratch/'
    tstress = .true.
    tprnfor = .true.
    !verbosity = 'high'
    forc_conv_thr=1e-4
/
&system
    ibrav = 1
    celldm(1) = 41.355
    nat = 512
    ntyp = 2
    ecutwfc = 50
    occupations = 'fixed'
    nspin = 2
    tot_charge = 0
    tot_magnetization = 1
    nosym = .true.
    noinv= .true.
/
&electrons
    diagonalization = 'david'
    diago_thr_init = 1e-4
    conv_thr = 1e-8
    mixing_beta=0.5
/
ATOMIC_SPECIES
Si   28.000    Si.pbe-tm-new-gipaw-dc.UPF
N    14.000    N.pbe-tm-new-gipaw-dc.UPF

ATOMIC_POSITIONS angstrom
Si           -0.0791244947       -0.0791244947       -0.0759393415
Si            2.6531459374        2.6531459374       -0.0794974040
Si           -0.0844516627        2.6581232340        2.6583188459
Si            2.6581232340       -0.0844516627        2.6583188459
Si            1.2871895843        1.2871895843        1.2927061677
Si            4.0196650331        4.0196650331        1.2871754993
Si            4.0236412808        1.2843321146        4.0257369520
Si            1.2843321146        4.0236412808        4.0257369520
Si            5.3945526665       -0.0860716078       -0.0764833510
Si            8.1252789941        2.6492997177       -0.0842845443
Si            5.3867447663        2.6492972725        2.6542404974
Si            8.1299364938       -0.0818351784        2.6589048556
Si            6.7604192996        1.2839371196        1.2893843600
Si            9.4911121559        4.0155175858        1.2819597201
Si            9.4965111538        1.2882206777        4.0254769426
Si            6.7529872752        4.0155155368        4.0200755087
Si           10.8639315124       -0.0809119527       -0.0746969212
Si           13.5956297296        2.6661648182       -0.0700363694
Si           10.8613546453        2.6571472133        2.6568398405
Si           13.5990238420       -0.0773959161        2.6603118926
Si           12.2307456845        1.2897103500        1.2920798227
Si           14.9596769305        4.0391893624        1.3003367414
Si           14.9648801724        1.2938761399        4.0274286173
Si           12.2249924387        4.0293811351        4.0250952180
Si           16.3318715729       -0.0751909107       -0.0719163904
Si           19.0662395391        2.6603358917       -0.0749424582
Si           16.3286148026        2.6677704471        2.6623220661
Si           19.0675723459       -0.0756343076        2.6607720395
Si           17.6984942539        1.2955938168        1.2959623091
Si           20.4287311124        4.0304968742        1.2948976376
Si           20.4291860001        1.2978851366        4.0290521307
Si           17.6711331608        4.0583154137        4.0321216520
Si           -0.0860716078        5.3945526665       -0.0764833510
Si            2.6492997177        8.1252789941       -0.0842845443
Si           -0.0818351784        8.1299364938        2.6589048556
Si            2.6492972725        5.3867447663        2.6542404974
Si            1.2839371196        6.7604192996        1.2893843600
Si            4.0155175858        9.4911121559        1.2819597201
Si            4.0155155368        6.7529872752        4.0200755087
Si            1.2882206777        9.4965111538        4.0254769426
Si            5.3841062264        5.3841062264       -0.0869248950
Si            8.1116168563        8.1116168563       -0.0998781343
Si            5.3711366665        8.1116117386        2.6405802874
Si            8.1116117386        5.3711366665        2.6405802874
Si            6.7492877729        6.7492877729        1.2782594118
Si            9.4711286505        9.4711286505        1.2673480535
Si            9.4711258470        6.7383546925        4.0000969644
Si            6.7383546925        9.4711258470        4.0000969644
Si           10.8547707583        5.4017638909       -0.0692634975
Si           13.5855862643        8.1372697577       -0.0598647237
Si           10.8260845910        8.1383120373        2.6672947418
Si           13.5855913563        5.4111505593        2.6662394861
Si           12.2182837102        6.7766923663        1.3056718157
Si           14.8845309740        9.5099409025        1.3705738449
Si           14.8845387248        6.8415859465        4.0389115229
Si           11.8977006874        9.6389612157        4.1679491280
Si           16.3289713429        5.3995797956       -0.0714546059
Si           19.0577830632        8.1335775260       -0.0676692947
Si           16.3077480300        8.1443589652        2.6733338291
Si           19.0577841618        5.4033659121        2.6625464384
Si           17.6833274114        6.7732237513        1.3021909050
Si           20.4326604272        9.4992739672        1.2949359927
Si           20.4326616872        6.7659687105        4.0282453443
Si           17.6922724703        9.5040672474        4.0330427264
Si           -0.0809119527       10.8639315124       -0.0746969212
Si            2.6661648182       13.5956297296       -0.0700363694
Si           -0.0773959161       13.5990238420        2.6603118926
Si            2.6571472133       10.8613546453        2.6568398405
Si            1.2897103500       12.2307456845        1.2920798227
Si            4.0391893624       14.9596769305        1.3003367414
Si            4.0293811351       12.2249924387        4.0250952180
Si            1.2938761399       14.9648801724        4.0274286173
Si            5.4017638909       10.8547707583       -0.0692634975
Si            8.1372697577       13.5855862643       -0.0598647237
Si            5.4111505593       13.5855913563        2.6662394861
Si            8.1383120373       10.8260845910        2.6672947418
Si            6.7766923663       12.2182837102        1.3056718157
Si            9.5099409025       14.8845309740        1.3705738449
Si            9.6389612157       11.8977006874        4.1679491280
Si            6.8415859465       14.8845387248        4.0389115229
Si           10.8552909111       10.8552909111       -0.0706712061
Si           13.5971203518       13.5971203518       -0.0704328639
Si           10.8757766484       13.4687758829        2.7718387955
Si           13.4687758829       10.8757766484        2.7718387955
Si           12.2281355053       12.2281355053        1.2936807440
Si           14.9651897139       14.9651897139        1.2955678422
Si           14.9460824691       12.2346935186        4.0418463135
Si           12.2346935186       14.9460824691        4.0418463135
Si           16.2844211028       10.8637448221       -0.0265818419
Si           19.0639600248       13.5969104297       -0.0708260318
Si           16.3227821703       13.5954461136        2.6684493750
Si           19.0645974355       10.8667052223        2.6641496725
Si           17.6912625127       12.2324206611        1.3009142672
Si           20.4361769352       14.9653319966        1.2942524081
Si           20.4372325869       12.2334821309        4.0285779608
Si           17.6984659038       14.9664035013        4.0319126292
Si           -0.0751909107       16.3318715729       -0.0719163904
Si            2.6603358917       19.0662395391       -0.0749424582
Si           -0.0756343076       19.0675723459        2.6607720395
Si            2.6677704471       16.3286148026        2.6623220661
Si            1.2955938168       17.6984942539        1.2959623091
Si            4.0304968742       20.4287311124        1.2948976376
Si            4.0583154137       17.6711331608        4.0321216520
Si            1.2978851366       20.4291860001        4.0290521307
Si            5.3995797956       16.3289713429       -0.0714546059
Si            8.1335775260       19.0577830632       -0.0676692947
Si            5.4033659121       19.0577841618        2.6625464384
Si            8.1443589652       16.3077480300        2.6733338291
Si            6.7732237513       17.6833274114        1.3021909050
Si            9.4992739672       20.4326604272        1.2949359927
Si            9.5040672474       17.6922724703        4.0330427264
Si            6.7659687105       20.4326616872        4.0282453443
Si           10.8637448221       16.2844211028       -0.0265818419
Si           13.5969104297       19.0639600248       -0.0708260318
Si           10.8667052223       19.0645974355        2.6641496725
Si           13.5954461136       16.3227821703        2.6684493750
Si           12.2324206611       17.6912625127        1.3009142672
Si           14.9653319966       20.4361769352        1.2942524081
Si           14.9664035013       17.6984659038        4.0319126292
Si           12.2334821309       20.4372325869        4.0285779608
Si           16.3338862729       16.3338862729       -0.0721098726
Si           19.0709699021       19.0709699021       -0.0725181130
Si           16.3325779517       19.0679947866        2.6622900123
Si           19.0679947866       16.3325779517        2.6622900123
Si           17.7022099528       17.7022099528        1.2944175050
Si           20.4388542209       20.4388542209        1.2951192423
Si           20.4391040227       17.7014751249        4.0285686174
Si           17.7014751249       20.4391040227        4.0285686174
Si           -0.0720903383       -0.0720903383        5.3925338791
Si            2.6625320046        2.6625320046        5.3916243297
Si           -0.0752040931        2.6647090953        8.1266846234
Si            2.6647090953       -0.0752040931        8.1266846234
Si            1.2955279933        1.2955279933        6.7610752160
Si            4.0341726155        4.0341726155        6.7561619864
Si            4.0328831855        1.2957344112        9.4931816242
Si            1.2957344112        4.0328831855        9.4931816242
Si            5.3963344427       -0.0809110129        5.3929015618
Si            8.1278700613        2.6571462564        5.3903165698
Si            5.4009983683        2.6661652119        8.1245974730
Si            8.1313433595       -0.0773931859        8.1279951272
Si            6.7631138064        1.2897114518        6.7597127484
Si            9.4961245185        4.0293817483        6.7539530526
Si            9.4984593764        1.2938800626        9.4938504145
Si            6.7713710531        4.0391909748        9.4886442217
Si           10.8651978451       -0.0780440465        5.3941678332
Si           13.5956181398        2.6630327462        5.3923741711
Si           10.8634016522        2.6630356699        8.1245831888
Si           13.6005089252       -0.0736022462        8.1294806651
Si           12.2315896104        1.2927124378        6.7605599486
Si           14.9606706411        4.0355064371        6.7587295421
Si           14.9663520014        1.2984168152        9.4953239743
Si           12.2297591558        4.0355093340        9.4896330225
Si           16.3347443927       -0.0736616592        5.3946879925
Si           19.0537280249        2.6773719644        5.3924873988
Si           16.3327586958        2.6667233854        8.1257568443
Si           19.0753531014       -0.0689409745        8.1286646964
Si           17.7013122343        1.2967143700        6.7616951802
Si           20.4341670344        4.0315108536        6.7611476195
Si           20.4431117166        1.2972265849        9.4975316068
Si           17.7017068950        4.0306168360        9.4960873048
Si           -0.0809110129        5.3963344427        5.3929015618
Si            2.6571462564        8.1278700613        5.3903165698
Si           -0.0773931859        8.1313433595        8.1279951272
Si            2.6661652119        5.4009983683        8.1245974730
Si            1.2897114518        6.7631138064        6.7597127484
Si            4.0293817483        9.4961245185        6.7539530526
Si            4.0391909748        6.7713710531        9.4886442217
Si            1.2938800626        9.4984593764        9.4938504145
Si            5.4017551511        5.4017551511        5.3837327461
Si            8.1382989000        8.1382989000        5.3550458446
Si            5.4111501967        8.1372669823        8.1145513779
Si            8.1372669823        5.4111501967        8.1145513779
Si            6.7766825746        6.7766825746        6.7472507147
Si            9.6389471098        9.6389471098        6.4266676151
Si            9.5099401940        6.8415888888        9.4134934908
Si            6.8415888888        9.5099401940        9.4134934908
Si           10.8552928711        5.4003374581        5.3842583997
Si           13.4687835217        8.2428461897        5.4047498845
Si           10.8757736475        8.2428465327        7.9977363325
Si           13.5971279698        5.4005826402        8.1260930292
Si           12.2281393360        6.7646874500        6.7571044089
Si           14.9460802184        9.5128730325        6.7636579807
Si           14.9651925567        6.7665940202        9.4941570616
Si           12.2346901311        9.5128794837        9.4750207534
Si           16.2844302669        5.4444381485        5.3927192516
Si           19.0645997624        8.1351776013        5.3956817298
Si           16.3227817695        8.1394798345        8.1244154183
Si           19.0639636966        5.4002029007        8.1258891780
Si           17.6912654207        6.7719406401        6.7613962059
Si           20.4372338681        9.4996098002        6.7624555062
Si           20.4361800092        6.7652863583        9.4943067064
Si           17.6984644488        9.5029448209        9.4953716474
Si           -0.0780440465       10.8651978451        5.3941678332
Si            2.6630327462       13.5956181398        5.3923741711
Si           -0.0736022462       13.6005089252        8.1294806651
Si            2.6630356699       10.8634016522        8.1245831888
Si            1.2927124378       12.2315896104        6.7605599486
Si            4.0355064371       14.9606706411        6.7587295421
Si            4.0355093340       12.2297591558        9.4896330225
Si            1.2984168152       14.9663520014        9.4953239743
Si            5.4003374581       10.8552928711        5.3842583997
Si            8.2428461897       13.4687835217        5.4047498845
Si            5.4005826402       13.5971279698        8.1260930292
Si            8.2428465327       10.8757736475        7.9977363325
Si            6.7646874500       12.2281393360        6.7571044089
Si            9.5128730325       14.9460802184        6.7636579807
Si            9.5128794837       12.2346901311        9.4750207534
Si            6.7665940202       14.9651925567        9.4941570616
N            10.5416144944       10.5416144944        5.0706016390
Si           13.6327541118       13.6327541118        5.4159666513
Si           10.8870114706       13.6327303114        8.1616802907
Si           13.6327303114       10.8870114706        8.1616802907
Si           12.3410383758       12.3410383758        6.8699641865
Si           14.9946006715       14.9946006715        6.7842257846
Si           14.9945832047       12.2552518868        9.5235440111
Si           12.2552518868       14.9945832047        9.5235440111
Si           16.3250534980       10.8719249809        5.4008955221
Si           19.0712262263       13.6020864804        5.3970746298
Si           16.3510341272       13.6112713746        8.1402383355
Si           19.0712254594       10.8681078482        8.1310568707
Si           17.7029683124       12.2361786280        6.7651464265
Si           20.4418611748       14.9694529776        6.7637121521
Si           20.4418613201       12.2347420422        9.4984265921
Si           17.7169150398       14.9775837575        9.5065581788
Si           -0.0736616592       16.3347443927        5.3946879925
Si            2.6773719644       19.0537280249        5.3924873988
Si           -0.0689409745       19.0753531014        8.1286646964
Si            2.6667233854       16.3327586958        8.1257568443
Si            1.2967143700       17.7013122343        6.7616951802
Si            4.0315108536       20.4341670344        6.7611476195
Si            4.0306168360       17.7017068950        9.4960873048
Si            1.2972265849       20.4431117166        9.4975316068
Si            5.4444381485       16.2844302669        5.3927192516
Si            8.1351776013       19.0645997624        5.3956817298
Si            5.4002029007       19.0639636966        8.1258891780
Si            8.1394798345       16.3227817695        8.1244154183
Si            6.7719406401       17.6912654207        6.7613962059
Si            9.4996098002       20.4372338681        6.7624555062
Si            9.5029448209       17.6984644488        9.4953716474
Si            6.7652863583       20.4361800092        9.4943067064
Si           10.8719249809       16.3250534980        5.4008955221
Si           13.6020864804       19.0712262263        5.3970746298
Si           10.8681078482       19.0712254594        8.1310568707
Si           13.6112713746       16.3510341272        8.1402383355
Si           12.2361786280       17.7029683124        6.7651464265
Si           14.9694529776       20.4418611748        6.7637121521
Si           14.9775837575       17.7169150398        9.5065581788
Si           12.2347420422       20.4418613201        9.4984265921
Si           16.3520165305       16.3520165305        5.4010371450
Si           19.0799903601       19.0799903601        5.3956350520
Si           16.3428143441       19.0808618042        8.1333730181
Si           19.0808618042       16.3428143441        8.1333730181
Si           17.7171811308       17.7171811308        6.7681801750
Si           20.4467990750       20.4467990750        6.7632421162
Si           20.4487681938       17.7090848580        9.5002582288
Si           17.7090848580       20.4487681938        9.5002582288
Si           -0.0734833722       -0.0734833722       10.8643041446
Si            2.6617260789        2.6617260789       10.8607121080
Si           -0.0760801927        2.6611721998       13.5988716053
Si            2.6611721998       -0.0760801927       13.5988716053
Si            1.2943085810        1.2943085810       12.2313901624
Si            4.0304527743        4.0304527743       12.2268042063
Si            4.0289416267        1.2918231440       14.9657584503
Si            1.2918231440        4.0289416267       14.9657584503
Si            5.3991184191       -0.0751875870       10.8608466026
Si            8.1333543828        2.6677746006       10.8575857689
Si            5.3960927852        2.6603420162       13.5952128393
Si            8.1318064133       -0.0756297902       13.5965444513
Si            6.7669962277        1.2955991267       12.2274680480
Si            9.5031567973        4.0583215763       12.2000984262
Si            9.5000860202        1.2978905722       14.9581572070
Si            6.7659368684        4.0305045802       14.9576994358
Si           10.8657174341       -0.0736590924       10.8637149343
Si           13.5967822193        2.6667260479       10.8617248598
Si           10.8635187787        2.6773774458       13.5826966470
Si           13.5996898885       -0.0689410506       13.6043249367
Si           12.2327242773        1.2967170193       12.2302820364
Si           14.9671101089        4.0306223925       12.2306718314
Si           14.9685554983        1.2972288231       14.9720814138
Si           12.2321763109        4.0315197929       14.9631338266
Si           16.3370288443       -0.0678378461       10.8660036633
Si           19.0725757034        2.6644342436       10.8643071015
Si           16.3353277478        2.6644380897       13.6015426540
Si           19.0728891354       -0.0733586689       13.6018630025
Si           17.7056875315        1.2973560629       12.2346625101
Si           20.4413009771        4.0317801731       12.2317080475
Si           20.4404381475        1.2940613159       14.9694067065
Si           17.7027329919        4.0317809112       14.9702668482
Si           -0.0751875870        5.3991184191       10.8608466026
Si            2.6677746006        8.1333543828       10.8575857689
Si           -0.0756297902        8.1318064133       13.5965444513
Si            2.6603420162        5.3960927852       13.5952128393
Si            1.2955991267        6.7669962277       12.2274680480
Si            4.0583215763        9.5031567973       12.2000984262
Si            4.0305045802        6.7659368684       14.9576994358
Si            1.2978905722        9.5000860202       14.9581572070
Si            5.3995835282        5.3995835282       10.8579400782
Si            8.1443643853        8.1443643853       10.8367017024
Si            5.4033730609        8.1335836055       13.5867493805
Si            8.1335836055        5.4033730609       13.5867493805
Si            6.7732310536        6.7732310536       12.2122903619
Si            9.5040745374        9.5040745374       12.2212224519
Si            9.4992791264        6.7659779976       14.9616265760
Si            6.7659779976        9.4992791264       14.9616265760
Si           10.8637478942        5.4444441389       10.8133880483
Si           13.5954431842        8.1394876601       10.8517311555
Si           10.8667086643        8.1351856282       13.5935557367
Si           13.5969116945        5.4002121659       13.5929238562
Si           12.2324237126        6.7719514067       12.2202195691
Si           14.9663971970        9.5029458264       12.2274240549
Si           14.9653304402        6.7652894204       14.9651431034
Si           12.2334811784        9.4996128017       14.9661953731
Si           16.3338890402        5.3989191624       10.8628577227
Si           19.0679952318        8.1333256705       10.8615485568
Si           16.3325727079        8.1333269720       13.5969588048
Si           19.0709691418        5.3985191715       13.5999391722
Si           17.7022080918        6.7654536762       12.2311784252
Si           20.4391058616        9.4996006563       12.2304473547
Si           20.4388549577        6.7661552919       14.9678237380
Si           17.7014693223        9.4995999546       14.9680741392
Si           -0.0736590924       10.8657174341       10.8637149343
Si            2.6667260479       13.5967822193       10.8617248598
Si           -0.0689410506       13.5996898885       13.6043249367
Si            2.6773774458       10.8635187787       13.5826966470
Si            1.2967170193       12.2327242773       12.2302820364
Si            4.0306223925       14.9671101089       12.2306718314
Si            4.0315197929       12.2321763109       14.9631338266
Si            1.2972288231       14.9685554983       14.9720814138
Si            5.4444441389       10.8637478942       10.8133880483
Si            8.1394876601       13.5954431842       10.8517311555
Si            5.4002121659       13.5969116945       13.5929238562
Si            8.1351856282       10.8667086643       13.5935557367
Si            6.7719514067       12.2324237126       12.2202195691
Si            9.5029458264       14.9663971970       12.2274240549
Si            9.4996128017       12.2334811784       14.9661953731
Si            6.7652894204       14.9653304402       14.9651431034
Si           10.8719271344       10.8719271344       10.8539969441
Si           13.6112678207       13.6112678207       10.8799880518
Si           10.8681084215       13.6020820911       13.6001854440
Si           13.6020820911       10.8681084215       13.6001854440
Si           12.2361754507       12.2361754507       12.2319206906
Si           14.9775787903       14.9775787903       12.2458810626
Si           14.9694465720       12.2347394981       14.9708296982
Si           12.2347394981       14.9694465720       14.9708296982
Si           16.3520038672       10.8720718765       10.8809705668
Si           19.0808612794       13.6044006466       10.8717900616
Si           16.3428099908       13.6043979494       13.6098311586
Si           19.0799847554       10.8666639266       13.6089587491
Si           17.7171722545       12.2392055408       12.2461459232
Si           20.4487670750       14.9712856194       12.2380612072
Si           20.4467949446       12.2342694410       14.9757690716
Si           17.7090804988       14.9712822702       14.9777397451
Si           -0.0678378461       16.3370288443       10.8660036633
Si            2.6644342436       19.0725757034       10.8643071015
Si           -0.0733586689       19.0728891354       13.6018630025
Si            2.6644380897       16.3353277478       13.6015426540
Si            1.2973560629       17.7056875315       12.2346625101
Si            4.0317801731       20.4413009771       12.2317080475
Si            4.0317809112       17.7027329919       14.9702668482
Si            1.2940613159       20.4404381475       14.9694067065
Si            5.3989191624       16.3338890402       10.8628577227
Si            8.1333256705       19.0679952318       10.8615485568
Si            5.3985191715       19.0709691418       13.5999391722
Si            8.1333269720       16.3325727079       13.5969588048
Si            6.7654536762       17.7022080918       12.2311784252
Si            9.4996006563       20.4391058616       12.2304473547
Si            9.4995999546       17.7014693223       14.9680741392
Si            6.7661552919       20.4388549577       14.9678237380
Si           10.8720718765       16.3520038672       10.8809705668
Si           13.6044006466       19.0808612794       10.8717900616
Si           10.8666639266       19.0799847554       13.6089587491
Si           13.6043979494       16.3428099908       13.6098311586
Si           12.2392055408       17.7171722545       12.2461459232
Si           14.9712856194       20.4487670750       12.2380612072
Si           14.9712822702       17.7090804988       14.9777397451
Si           12.2342694410       20.4467949446       14.9757690716
Si           16.3424434291       16.3424434291       10.8714188844
Si           19.0765587571       19.0765587571       10.8669470761
Si           16.3379739359       19.0765569992       13.6055349963
Si           19.0765569992       16.3379739359       13.6055349963
Si           17.7096189439       17.7096189439       12.2385935454
Si           20.4436344327       20.4436344327       12.2349952333
Si           20.4436334992       17.7060221396       14.9726094003
Si           17.7060221396       20.4436334992       14.9726094003
Si           -0.0765064073       -0.0765064073       16.3365863883
Si            2.6581560024        2.6581560024       16.3329423138
Si           -0.0801545808        2.6581538251       19.0712424478
Si            2.6581538251       -0.0801545808       19.0712424478
Si            1.2909867692        1.2909867692       17.7040776523
Si            4.0260394083        4.0260394083       17.6984227575
Si            4.0260361621        1.2853305594       20.4391223995
Si            1.2853305594        4.0260361621       20.4391223995
Si            5.3950985703       -0.0791216518       16.3339682969
Si            8.1293554535        2.6581311499       16.3286420343
Si            5.3915439645        2.6531511391       19.0662399004
Si            8.1293540719       -0.0844509088       19.0712130761
Si            6.7637445131        1.2871943384       17.7002810972
Si            9.4967715226        4.0236503014       17.6974262657
Si            9.4967706380        1.2843335665       20.4367325033
Si            6.7582153022        4.0196705534       20.4327614157
Si           10.8635641294       -0.0720903157       16.3410022665
Si           13.5977105549        2.6647146943       16.3378864643
Si           10.8626562006        2.6625377545       19.0756254275
Si           13.5977095658       -0.0752039038       19.0777997277
Si           12.2321034656        1.2955319387       17.7086189257
Si           14.9642087527        4.0328862000       17.7088252395
Si           14.9642111165        1.2957335721       20.4459697754
Si           12.2271930329        4.0341784095       20.4472689310
Si           16.3353260549       -0.0734848108       16.3396100599
Si           19.0698984119        2.6611717583       16.3370059294
Si           16.3317413128        2.6617246116       19.0748112527
Si           19.0698978660       -0.0760827905       19.0742614400
Si           17.7024188783        1.2943066169       17.7073952143
Si           20.4367870510        4.0289399749       17.7049071680
Si           20.4367862574        1.2918196654       20.4420296136
Si           17.6978347726        4.0304484661       20.4435378417
Si           -0.0791216518        5.3950985703       16.3339682969
Si            2.6581311499        8.1293554535       16.3286420343
Si           -0.0844509088        8.1293540719       19.0712130761
Si            2.6531511391        5.3915439645       19.0662399004
Si            1.2871943384        6.7637445131       17.7002810972
Si            4.0236503014        9.4967715226       17.6974262657
Si            4.0196705534        6.7582153022       20.4327614157
Si            1.2843335665        9.4967706380       20.4367325033
Si            5.3945589598        5.3945589598       16.3270239376
Si            8.1299424796        8.1299424796       16.3312604810
Si            5.3867533366        8.1252807752       19.0623974997
Si            8.1252807752        5.3867533366       19.0623974997
Si            6.7604245541        6.7604245541       17.6970351492
Si            9.4965131894        9.4965131894       17.7013218191
Si            9.4911123624        6.7529950925       20.4286208526
Si            6.7529950925        9.4911123624       20.4286208526
Si           10.8639326964        5.3963443873       16.3321804735
Si           13.5990204138        8.1313472919       16.3356942582
Si           10.8613536299        8.1278748150       19.0702498834
Si           13.5956271073        5.4010023727       19.0792589193
Si           12.2307434590        6.7631198431       17.7028062026