%BLOCK LATTICE_CART
ang
  2.8112569800   0.0000000000   0.0000000000
 -1.4056284900   2.4346199612   0.0000000000
  0.0000000000   0.0000000000  13.9094564300
%ENDBLOCK LATTICE_CART

%BLOCK POSITIONS_ABS
ang
  Li   0.0000000000   0.0000000000   0.0000000000
  Li   1.4056285041   0.8115399790   4.6364854303
  Li  -0.0000000141   1.6230799823   9.2729709997

  Co  -0.0000000141   1.6230799823   2.3182427847
  Co   2.8112569800   0.0000000000   6.9547282150
  Co   1.4056285041   0.8115399790  11.5912136453

  O    0.0000000000   0.0000000000   3.3383641275
  O    1.4056285041   0.8115399790   1.2981213028
  O    1.4056285041   0.8115399790   7.9748495578
  O   -0.0000000141   1.6230799823   5.9346068722
  O   -0.0000000141   1.6230799823  12.6113351272
  O    0.0000000000   0.0000000000  10.5710923025
%ENDBLOCK POSITIONS_ABS

KPOINT_MP_GRID 3 3 1

%BLOCK HUBBARD_U
eV
Co d : 8.0
%ENDBLOCK HUBBARD_U

