&control
    prefix = 'h2o+'
    calculation = 'scf'
    restart_mode = 'from_scratch'
    pseudo_dir = './pseudo/'
    outdir = './scratch/'
    tstress = .false.
    tprnfor = .false.
    verbosity = 'high'
/
&system
    ibrav = 1
    celldm(1) = 20
    nat = 3
    ntyp = 2
    ecutwfc = 100
    nspin = 2
    tot_charge = 1
    occupations = 'fixed'
    tot_magnetization = 1
/
&electrons
    diagonalization = 'david'
    diago_thr_init = 1e-4
    conv_thr = 1e-8
/
ATOMIC_SPECIES
O  16.0000    O.pbe-tm-gipaw.UPF
H   1.0000    H.pbe-tm-gipaw.UPF

ATOMIC_POSITIONS angstrom
O        5.000000030      5.000000030      5.000000030
H        5.820825912      5.569427559      5.000000030
H        4.179175207      5.569427559      5.000000030
K_POINTS automatic
1 1 1 0 0 0

