&CONTROL
  pseudo_dir = '../../gipaw_pbesol'
  calculation = 'scf'
  outdir = './scratch'
  prefix = 'licoo2'
/

&SYSTEM
  ibrav = 0
  nat = 12
  ntyp = 3
  ecutwfc = 80.0
  nosym = .true.
  noinv = .true.
  occupations = 'smearing'
  smearing = 'gaussian'
  degauss = 1.d-6
/

&ELECTRONS
  conv_thr = 1.d-9
/

ATOMIC_SPECIES
  Li  6.940000  Li.upf
  Co  58.933194  Co.upf
  O  15.999000  O.upf

CELL_PARAMETERS angstrom
  2.8112569800  0.0000000000  0.0000000000
  -1.4056284900  2.4346199612  0.0000000000
  0.0000000000  0.0000000000  13.9094564300

ATOMIC_POSITIONS angstrom
  Li  0.0000000000  0.0000000000  0.0000000000
  Li  1.4056285041  0.8115399790  4.6364854303
  Li  -0.0000000141  1.6230799823  9.2729709997
  Co  -0.0000000141  1.6230799823  2.3182427847
  Co  2.8112569800  0.0000000000  6.9547282150
  Co  1.4056285041  0.8115399790  11.5912136453
  O  0.0000000000  0.0000000000  3.3383641275
  O  1.4056285041  0.8115399790  1.2981213028
  O  1.4056285041  0.8115399790  7.9748495578
  O  -0.0000000141  1.6230799823  5.9346068722
  O  -0.0000000141  1.6230799823  12.6113351272
  O  0.0000000000  0.0000000000  10.5710923025

K_POINTS automatic
  3 3 1 0 0 0

HUBBARD (atomic)
  U Co-3d  8.0
